NAME : rnd39_20.tsp
TYPE : TSP
DIMENSION : 20
EDGE_WEIGHT_TYPE : EUC_2D
NODE_COORD_SECTION
1 620 272
2 646 78
3 412 523
4 241 533
5 468 623
6 278 384
7 757 150
8 655 727
9 545 364
10 911 73
11 316 752
12 795 895
13 555 964
14 372 13
15 643 48
16 692 111
17 370 291
18 575 655
19 908 860
20 355 614
